p cnf 7230 16
464 -715 0
464 -718 0
464 -721 0
-464 -713 714 0
464 -724 0
-464 -716 717 0
-464 -719 720 0
-464 -722 723 0
-714 715 0
722 -724 0
719 -721 0
-717 718 0
716 -718 0
713 -715 0
-720 721 0
-723 724 0
